\ SCIP STATISTICS
\   Problem name     : SetCover-200-200
\   Variables        : 200 (200 binary, 0 integer, 0 implicit integer, 0 continuous)
\   Constraints      : 200
Minimize
 Obj: +41 x0 +91 x1 +71 x2 +36 x3 +46 x4 +88 x5 +82 x6 +35 x7 +58 x8 +70 x9 +47 x10 +85 x11 +82 x12 +97 x13
      +12 x14 +50 x15 +14 x16 +39 x17 +4 x18 +28 x19 +36 x20 +21 x21 +58 x22 +66 x23 +82 x24 +12 x25 +61 x26
      +68 x27 +93 x28 +43 x29 +76 x30 +30 x31 +88 x32 +75 x33 +39 x34 +2 x35 +22 x36 +91 x37 +83 x38 +69 x39
      +8 x40 +45 x41 +19 x42 +24 x43 +58 x44 +27 x45 +64 x46 +55 x47 +13 x48 +51 x49 +79 x50 +52 x51 +62 x52
      +28 x53 +76 x54 +16 x55 +34 x56 +56 x57 +68 x58 +47 x59 +53 x60 +33 x61 +78 x62 +74 x63 +40 x64
      +88 x65 +31 x66 +46 x67 +10 x68 +43 x69 +59 x70 +73 x71 +95 x72 +77 x73 +39 x74 +53 x75 +16 x76
      +51 x77 +52 x78 +12 x79 +37 x80 +33 x81 +18 x82 +49 x83 +15 x84 +11 x85 +15 x86 +43 x87 +15 x88
      +64 x89 +2 x90 +8 x91 +97 x92 +74 x93 +99 x94 +88 x95 +55 x96 +4 x97 +86 x98 +67 x99 +9 x100 +29 x101
      +81 x102 +53 x103 +68 x104 +81 x105 +86 x106 +34 x107 +30 x108 +18 x109 +99 x110 +55 x111 +24 x112
      +43 x113 +3 x114 +73 x115 +84 x116 +26 x117 +17 x118 +91 x119 +57 x120 +97 x121 +17 x122 +68 x123
      +11 x124 +31 x125 +24 x126 +89 x127 +36 x128 +17 x129 +1 x130 +52 x131 +71 x132 +44 x133 +35 x134
      +45 x135 +51 x136 +96 x137 +25 x138 +43 x139 +48 x140 +100 x141 +40 x142 +85 x143 +34 x144 +97 x145
      +84 x146 +18 x147 +1 x148 +98 x149 +82 x150 +23 x151 +49 x152 +86 x153 +24 x154 +98 x155 +58 x156
      +53 x157 +37 x158 +9 x159 +11 x160 +82 x161 +90 x162 +25 x163 +9 x164 +48 x165 +17 x166 +3 x167
      +46 x168 +14 x169 +28 x170 +23 x171 +40 x172 +76 x173 +82 x174 +63 x175 +69 x176 +88 x177 +11 x178
      +33 x179 +77 x180 +6 x181 +61 x182 +34 x183 +18 x184 +73 x185 +28 x186 +48 x187 +82 x188 +50 x189
      +25 x190 +78 x191 +41 x192 +13 x193 +81 x194 +16 x195 +26 x196 +20 x197 +82 x198 +51 x199
Subject to
 c0: +1 x0 +1 x10 +1 x16 +1 x28 +1 x30 +1 x70 +1 x74 +1 x82 +1 x87 +1 x104 +1 x111 +1 x126 +1 x136 +1 x140
  +1 x143 +1 x144 +1 x155 +1 x172 +1 x180 +1 x188 >= +1
 c1: +1 x8 +1 x11 +1 x12 +1 x13 +1 x22 +1 x38 +1 x42 +1 x46 +1 x54 +1 x64 +1 x65 +1 x67 +1 x76 +1 x95
  +1 x100 +1 x110 +1 x117 +1 x138 +1 x142 +1 x147 +1 x149 +1 x153 +1 x166 +1 x170 +1 x182 +1 x193 +1 x199
  >= +1
 c2: +1 x1 +1 x15 +1 x38 +1 x46 +1 x61 +1 x81 +1 x94 +1 x98 +1 x122 +1 x125 +1 x134 +1 x142 +1 x146 +1 x148
  +1 x170 +1 x180 +1 x181 +1 x184 +1 x192 >= +1
 c3: +1 x6 +1 x18 +1 x31 +1 x43 +1 x45 +1 x53 +1 x59 +1 x70 +1 x81 +1 x87 +1 x102 +1 x104 +1 x105 +1 x106
  +1 x112 +1 x121 +1 x146 +1 x157 +1 x169 +1 x176 +1 x186 +1 x192 >= +1
 c4: +1 x5 +1 x35 +1 x44 +1 x69 +1 x71 +1 x73 +1 x80 +1 x96 +1 x98 +1 x107 +1 x122 +1 x135 +1 x144 +1 x148
  +1 x168 +1 x175 +1 x177 +1 x185 +1 x188 >= +1
 c5: +1 x5 +1 x12 +1 x18 +1 x28 +1 x42 +1 x59 +1 x67 +1 x77 +1 x86 +1 x93 +1 x103 +1 x127 +1 x131 +1 x136
  +1 x144 +1 x151 +1 x167 +1 x170 +1 x178 +1 x186 +1 x198 >= +1
 c6: +1 x0 +1 x39 +1 x44 +1 x50 +1 x57 +1 x68 +1 x77 +1 x83 +1 x85 +1 x114 +1 x117 +1 x120 +1 x128 +1 x135
  +1 x137 +1 x147 +1 x154 +1 x159 +1 x169 +1 x174 +1 x175 +1 x179 +1 x182 +1 x192 >= +1
 c7: +1 x4 +1 x23 +1 x31 +1 x41 +1 x48 +1 x53 +1 x69 +1 x86 +1 x87 +1 x98 +1 x100 +1 x114 +1 x116 +1 x124
  +1 x132 +1 x148 +1 x165 +1 x169 +1 x170 +1 x193 +1 x194 +1 x196 +1 x197 >= +1
 c8: +1 x4 +1 x12 +1 x18 +1 x27 +1 x34 +1 x62 +1 x65 +1 x76 +1 x93 +1 x101 +1 x106 +1 x122 +1 x140 +1 x142
  +1 x150 +1 x152 +1 x156 +1 x160 +1 x168 +1 x175 +1 x180 +1 x187 +1 x188 +1 x190 >= +1
 c9: +1 x4 +1 x22 +1 x25 +1 x29 +1 x33 +1 x50 +1 x64 +1 x87 +1 x89 +1 x125 +1 x130 +1 x132 +1 x150 +1 x155
  +1 x159 +1 x161 +1 x165 +1 x172 +1 x183 +1 x190 +1 x199 >= +1
 c10: +1 x1 +1 x40 +1 x53 +1 x58 +1 x59 +1 x61 +1 x66 +1 x67 +1 x83 +1 x101 +1 x105 +1 x119 +1 x125 +1 x130
  +1 x132 +1 x157 +1 x158 +1 x159 +1 x198 >= +1
 c11: +1 x0 +1 x13 +1 x31 +1 x40 +1 x55 +1 x57 +1 x66 +1 x74 +1 x76 +1 x90 +1 x95 +1 x102 +1 x117 +1 x122
  +1 x133 +1 x138 +1 x145 +1 x155 +1 x160 +1 x190 +1 x198 >= +1
 c12: +1 x6 +1 x18 +1 x25 +1 x30 +1 x59 +1 x60 +1 x68 +1 x76 +1 x89 +1 x90 +1 x123 +1 x132 +1 x154 +1 x166
  +1 x178 +1 x188 +1 x199 >= +1
 c13: +1 x6 +1 x29 +1 x32 +1 x38 +1 x40 +1 x50 +1 x58 +1 x70 +1 x71 +1 x82 +1 x84 +1 x103 +1 x116 +1 x117
  +1 x125 +1 x126 +1 x139 +1 x164 +1 x166 +1 x170 +1 x185 >= +1
 c14: +1 x1 +1 x10 +1 x13 +1 x17 +1 x31 +1 x39 +1 x65 +1 x83 +1 x94 +1 x98 +1 x136 +1 x155 +1 x162 +1 x172
  >= +1
 c15: +1 x4 +1 x17 +1 x48 +1 x53 +1 x56 +1 x62 +1 x68 +1 x72 +1 x75 +1 x80 +1 x105 +1 x121 +1 x126 +1 x129
  +1 x137 +1 x138 +1 x158 +1 x165 +1 x170 +1 x171 +1 x194 >= +1
 c16: +1 x6 +1 x14 +1 x20 +1 x21 +1 x23 +1 x25 +1 x29 +1 x40 +1 x72 +1 x105 +1 x120 +1 x131 +1 x136 +1 x145
  +1 x147 +1 x157 +1 x172 +1 x182 >= +1
 c17: +1 x6 +1 x17 +1 x18 +1 x26 +1 x38 +1 x55 +1 x56 +1 x60 +1 x61 +1 x80 +1 x103 +1 x104 +1 x127 +1 x153
  +1 x159 +1 x186 +1 x193 >= +1
 c18: +1 x4 +1 x23 +1 x24 +1 x36 +1 x52 +1 x67 +1 x104 +1 x120 +1 x124 +1 x129 +1 x139 +1 x141 +1 x145
  +1 x146 +1 x181 +1 x182 +1 x186 +1 x195 >= +1
 c19: +1 x3 +1 x13 +1 x14 +1 x15 +1 x28 +1 x36 +1 x42 +1 x70 +1 x81 +1 x91 +1 x116 +1 x155 +1 x172 >= +1
 c20: +1 x3 +1 x23 +1 x27 +1 x29 +1 x31 +1 x58 +1 x59 +1 x62 +1 x78 +1 x95 +1 x104 +1 x116 +1 x121 +1 x136
  +1 x146 +1 x148 +1 x149 +1 x165 +1 x177 +1 x181 +1 x182 +1 x192 >= +1
 c21: +1 x7 +1 x12 +1 x15 +1 x32 +1 x34 +1 x36 +1 x37 +1 x39 +1 x41 +1 x43 +1 x52 +1 x55 +1 x60 +1 x62
  +1 x85 +1 x86 +1 x90 +1 x91 +1 x104 +1 x120 +1 x125 +1 x126 +1 x130 +1 x133 +1 x134 +1 x144 +1 x152
  +1 x158 +1 x183 >= +1
 c22: +1 x3 +1 x9 +1 x36 +1 x39 +1 x48 +1 x65 +1 x74 +1 x83 +1 x84 +1 x89 +1 x93 +1 x107 +1 x134 +1 x143
  +1 x151 +1 x166 +1 x180 +1 x196 >= +1
 c23: +1 x1 +1 x9 +1 x15 +1 x16 +1 x23 +1 x38 +1 x76 +1 x94 +1 x107 +1 x115 +1 x137 +1 x139 +1 x142 +1 x144
  +1 x155 +1 x157 +1 x160 +1 x161 +1 x166 +1 x174 +1 x189 +1 x197 >= +1
 c24: +1 x4 +1 x19 +1 x24 +1 x28 +1 x30 +1 x34 +1 x55 +1 x85 +1 x128 +1 x133 +1 x162 +1 x165 +1 x173 >= +1
 c25: +1 x8 +1 x18 +1 x25 +1 x31 +1 x50 +1 x51 +1 x61 +1 x69 +1 x81 +1 x88 +1 x94 +1 x97 +1 x108 +1 x113
  +1 x114 +1 x118 +1 x130 +1 x143 +1 x145 +1 x161 +1 x192 +1 x194 >= +1
 c26: +1 x5 +1 x25 +1 x36 +1 x49 +1 x63 +1 x98 +1 x99 +1 x102 +1 x117 +1 x123 +1 x137 +1 x139 +1 x141
  +1 x176 +1 x182 +1 x183 +1 x199 >= +1
 c27: +1 x3 +1 x14 +1 x19 +1 x22 +1 x36 +1 x39 +1 x49 +1 x74 +1 x75 +1 x115 +1 x149 +1 x150 +1 x159 +1 x197
  >= +1
 c28: +1 x3 +1 x25 +1 x48 +1 x59 +1 x68 +1 x70 +1 x75 +1 x84 +1 x85 +1 x94 +1 x138 +1 x157 +1 x161 +1 x164
  +1 x166 +1 x170 +1 x180 >= +1
 c29: +1 x3 +1 x31 +1 x40 +1 x41 +1 x44 +1 x59 +1 x69 +1 x90 +1 x96 +1 x99 +1 x134 +1 x141 +1 x142 +1 x150
  +1 x153 +1 x155 +1 x159 +1 x182 +1 x185 +1 x189 >= +1
 c30: +1 x6 +1 x30 +1 x31 +1 x32 +1 x48 +1 x60 +1 x74 +1 x75 +1 x76 +1 x81 +1 x95 +1 x107 +1 x132 +1 x147
  +1 x157 +1 x178 +1 x183 +1 x191 >= +1
 c31: +1 x4 +1 x15 +1 x19 +1 x43 +1 x46 +1 x56 +1 x81 +1 x83 +1 x88 +1 x91 +1 x98 +1 x102 +1 x108 +1 x144
  +1 x149 +1 x150 +1 x158 +1 x167 +1 x177 +1 x184 +1 x186 +1 x199 >= +1
 c32: +1 x0 +1 x14 +1 x41 +1 x42 +1 x52 +1 x56 +1 x69 +1 x92 +1 x94 +1 x95 +1 x109 +1 x132 +1 x182 +1 x198
  >= +1
 c33: +1 x4 +1 x13 +1 x36 +1 x37 +1 x59 +1 x101 +1 x102 +1 x118 +1 x132 +1 x134 +1 x152 +1 x153 +1 x155
  +1 x158 +1 x162 +1 x166 +1 x181 +1 x182 +1 x197 >= +1
 c34: +1 x3 +1 x9 +1 x15 +1 x19 +1 x45 +1 x48 +1 x53 +1 x61 +1 x80 +1 x107 +1 x119 +1 x123 +1 x133 +1 x144
  +1 x149 +1 x174 +1 x183 +1 x185 >= +1
 c35: +1 x4 +1 x13 +1 x21 +1 x26 +1 x27 +1 x79 +1 x84 +1 x87 +1 x93 +1 x101 +1 x105 +1 x115 +1 x121 +1 x142
  +1 x150 +1 x173 +1 x180 +1 x194 >= +1
 c36: +1 x1 +1 x20 +1 x31 +1 x35 +1 x43 +1 x50 +1 x53 +1 x58 +1 x69 +1 x79 +1 x98 +1 x99 +1 x118 +1 x135
  +1 x137 +1 x141 +1 x144 +1 x150 +1 x160 +1 x173 +1 x178 +1 x179 +1 x182 >= +1
 c37: +1 x4 +1 x15 +1 x28 +1 x29 +1 x38 +1 x65 +1 x97 +1 x104 +1 x115 +1 x116 +1 x121 +1 x148 +1 x151
  +1 x157 +1 x163 +1 x172 +1 x186 >= +1
 c38: +1 x3 +1 x9 +1 x28 +1 x37 +1 x53 +1 x75 +1 x88 +1 x93 +1 x102 +1 x105 +1 x129 +1 x134 +1 x141 +1 x147
  +1 x149 +1 x162 +1 x173 +1 x181 +1 x185 >= +1
 c39: +1 x7 +1 x16 +1 x27 +1 x31 +1 x36 +1 x49 +1 x58 +1 x61 +1 x63 +1 x78 +1 x81 +1 x104 +1 x105 +1 x106
  +1 x122 +1 x127 +1 x130 +1 x146 +1 x152 +1 x156 +1 x178 +1 x187 +1 x189 +1 x199 >= +1
 c40: +1 x2 +1 x10 +1 x12 +1 x44 +1 x67 +1 x77 +1 x78 +1 x96 +1 x98 +1 x101 +1 x112 +1 x113 +1 x128 +1 x129
  +1 x136 +1 x147 +1 x151 +1 x165 +1 x167 +1 x170 >= +1
 c41: +1 x5 +1 x13 +1 x31 +1 x49 +1 x58 +1 x71 +1 x82 +1 x88 +1 x103 +1 x113 +1 x122 +1 x133 +1 x166 +1 x172
  +1 x182 +1 x185 +1 x192 >= +1
 c42: +1 x2 +1 x10 +1 x30 +1 x44 +1 x53 +1 x54 +1 x56 +1 x71 +1 x81 +1 x87 +1 x100 +1 x109 +1 x111 +1 x118
  +1 x125 +1 x147 +1 x157 +1 x163 +1 x164 +1 x165 +1 x188 +1 x194 +1 x195 +1 x199 >= +1
 c43: +1 x1 +1 x15 +1 x17 +1 x26 +1 x52 +1 x55 +1 x64 +1 x67 +1 x76 +1 x93 +1 x104 +1 x109 +1 x115 +1 x145
  +1 x160 +1 x169 +1 x170 +1 x188 +1 x199 >= +1
 c44: +1 x1 +1 x24 +1 x30 +1 x63 +1 x67 +1 x93 +1 x103 +1 x125 +1 x131 +1 x133 +1 x136 +1 x142 +1 x170
  +1 x172 +1 x175 +1 x176 >= +1
 c45: +1 x6 +1 x33 +1 x42 +1 x47 +1 x50 +1 x55 +1 x65 +1 x67 +1 x73 +1 x94 +1 x95 +1 x139 +1 x148 +1 x154
  +1 x157 +1 x160 +1 x182 +1 x194 >= +1
 c46: +1 x8 +1 x14 +1 x20 +1 x23 +1 x25 +1 x27 +1 x28 +1 x38 +1 x43 +1 x50 +1 x62 +1 x75 +1 x77 +1 x78
  +1 x82 +1 x84 +1 x95 +1 x127 +1 x131 +1 x132 +1 x148 +1 x171 +1 x174 +1 x194 >= +1
 c47: +1 x3 +1 x23 +1 x44 +1 x65 +1 x89 +1 x91 +1 x93 +1 x109 +1 x121 +1 x129 +1 x130 +1 x133 +1 x134
  +1 x142 +1 x145 +1 x150 +1 x169 +1 x172 +1 x173 +1 x176 +1 x180 >= +1
 c48: +1 x2 +1 x13 +1 x33 +1 x40 +1 x67 +1 x87 +1 x89 +1 x91 +1 x100 +1 x111 +1 x115 +1 x121 +1 x157 +1 x165
  +1 x173 +1 x180 +1 x184 +1 x190 >= +1
 c49: +1 x4 +1 x15 +1 x32 +1 x38 +1 x47 +1 x52 +1 x58 +1 x64 +1 x69 +1 x78 +1 x97 +1 x101 +1 x107 +1 x109
  +1 x117 +1 x122 +1 x139 +1 x151 +1 x176 +1 x180 >= +1
 c50: +1 x2 +1 x13 +1 x15 +1 x22 +1 x28 +1 x29 +1 x36 +1 x42 +1 x49 +1 x51 +1 x61 +1 x65 +1 x83 +1 x86
  +1 x97 +1 x102 +1 x121 +1 x127 +1 x155 +1 x162 +1 x170 >= +1
 c51: +1 x4 +1 x23 +1 x24 +1 x35 +1 x74 +1 x90 +1 x93 +1 x95 +1 x104 +1 x107 +1 x118 +1 x133 +1 x135 +1 x142
  +1 x146 +1 x147 +1 x157 +1 x163 +1 x185 +1 x186 >= +1
 c52: +1 x0 +1 x11 +1 x40 +1 x51 +1 x57 +1 x58 +1 x70 +1 x83 +1 x87 +1 x97 +1 x113 +1 x128 +1 x145 +1 x153
  +1 x176 +1 x177 >= +1
 c53: +1 x1 +1 x9 +1 x16 +1 x18 +1 x20 +1 x24 +1 x25 +1 x26 +1 x31 +1 x32 +1 x38 +1 x42 +1 x65 +1 x79
  +1 x85 +1 x111 +1 x113 +1 x118 +1 x156 +1 x175 +1 x183 +1 x184 +1 x188 +1 x195 +1 x199 >= +1
 c54: +1 x3 +1 x11 +1 x21 +1 x35 +1 x41 +1 x47 +1 x51 +1 x63 +1 x64 +1 x66 +1 x73 +1 x77 +1 x90 +1 x96
  +1 x98 +1 x108 +1 x112 +1 x120 +1 x130 +1 x131 +1 x150 +1 x159 +1 x162 +1 x175 +1 x185 +1 x189 +1 x192
  +1 x199 >= +1
 c55: +1 x6 +1 x26 +1 x31 +1 x35 +1 x72 +1 x79 +1 x90 +1 x91 +1 x94 +1 x120 +1 x125 +1 x137 +1 x138 +1 x143
  +1 x151 +1 x155 +1 x159 +1 x161 +1 x171 +1 x174 +1 x183 +1 x191 >= +1
 c56: +1 x3 +1 x13 +1 x18 +1 x24 +1 x45 +1 x55 +1 x58 +1 x65 +1 x66 +1 x72 +1 x75 +1 x99 +1 x107 +1 x115
  +1 x119 +1 x133 +1 x135 +1 x136 +1 x137 +1 x138 +1 x153 +1 x185 +1 x192 >= +1
 c57: +1 x4 +1 x21 +1 x32 +1 x37 +1 x41 +1 x42 +1 x82 +1 x84 +1 x92 +1 x98 +1 x106 +1 x111 +1 x114 +1 x117
  +1 x118 +1 x119 +1 x121 +1 x125 +1 x159 +1 x161 +1 x167 +1 x170 +1 x174 +1 x188 +1 x191 >= +1
 c58: +1 x5 +1 x32 +1 x37 +1 x52 +1 x84 +1 x98 +1 x124 +1 x128 +1 x142 +1 x162 +1 x180 +1 x182 +1 x199
  >= +1
 c59: +1 x6 +1 x13 +1 x19 +1 x24 +1 x44 +1 x51 +1 x78 +1 x95 +1 x104 +1 x105 +1 x112 +1 x115 +1 x125 +1 x126
  +1 x130 +1 x132 +1 x137 +1 x145 +1 x151 +1 x158 +1 x174 +1 x195 >= +1
 c60: +1 x6 +1 x15 +1 x22 +1 x38 +1 x40 +1 x45 +1 x53 +1 x74 +1 x76 +1 x91 +1 x98 +1 x105 +1 x138 +1 x140
  +1 x156 +1 x164 +1 x175 +1 x178 +1 x181 +1 x197 >= +1
 c61: +1 x8 +1 x34 +1 x39 +1 x47 +1 x51 +1 x73 +1 x88 +1 x103 +1 x109 +1 x133 +1 x141 +1 x144 +1 x155
  +1 x162 +1 x169 +1 x171 >= +1
 c62: +1 x3 +1 x16 +1 x18 +1 x19 +1 x55 +1 x58 +1 x65 +1 x116 +1 x118 +1 x133 +1 x154 +1 x158 +1 x160
  +1 x166 +1 x170 +1 x189 +1 x194 >= +1
 c63: +1 x7 +1 x14 +1 x20 +1 x38 +1 x45 +1 x49 +1 x51 +1 x84 +1 x108 +1 x111 +1 x121 +1 x126 +1 x146 +1 x150
  +1 x162 +1 x163 +1 x174 +1 x179 +1 x182 >= +1
 c64: +1 x8 +1 x19 +1 x26 +1 x35 +1 x37 +1 x68 +1 x72 +1 x89 +1 x94 +1 x95 +1 x100 +1 x125 +1 x132 +1 x137
  +1 x139 +1 x142 +1 x148 +1 x152 +1 x160 +1 x174 +1 x187 +1 x196 >= +1
 c65: +1 x0 +1 x33 +1 x79 +1 x96 +1 x120 +1 x124 +1 x131 +1 x134 +1 x153 +1 x159 +1 x162 +1 x168 +1 x183
  >= +1
 c66: +1 x0 +1 x32 +1 x38 +1 x52 +1 x60 +1 x68 +1 x77 +1 x95 +1 x96 +1 x98 +1 x104 +1 x107 +1 x114 +1 x122
  +1 x153 +1 x154 +1 x175 +1 x186 >= +1
 c67: +1 x5 +1 x17 +1 x19 +1 x26 +1 x37 +1 x38 +1 x43 +1 x49 +1 x53 +1 x67 +1 x69 +1 x71 +1 x88 +1 x92
  +1 x102 +1 x105 +1 x123 +1 x129 +1 x135 +1 x137 +1 x141 +1 x143 +1 x145 +1 x155 +1 x186 +1 x189 >= +1
 c68: +1 x4 +1 x20 +1 x41 +1 x44 +1 x50 +1 x55 +1 x56 +1 x61 +1 x63 +1 x67 +1 x68 +1 x75 +1 x85 +1 x92
  +1 x97 +1 x123 +1 x150 +1 x152 +1 x157 +1 x166 +1 x167 +1 x169 +1 x188 +1 x190 +1 x196 +1 x198 >= +1
 c69: +1 x3 +1 x21 +1 x37 +1 x45 +1 x67 +1 x74 +1 x75 +1 x82 +1 x107 +1 x112 +1 x115 +1 x117 +1 x124 +1 x142
  +1 x188 +1 x192 +1 x195 +1 x197 >= +1
 c70: +1 x4 +1 x13 +1 x19 +1 x23 +1 x27 +1 x32 +1 x34 +1 x45 +1 x50 +1 x51 +1 x60 +1 x68 +1 x77 +1 x96
  +1 x115 +1 x120 +1 x123 +1 x128 +1 x130 +1 x178 +1 x180 +1 x183 +1 x198 >= +1
 c71: +1 x8 +1 x17 +1 x22 +1 x33 +1 x46 +1 x63 +1 x98 +1 x99 +1 x100 +1 x106 +1 x114 +1 x131 +1 x147 +1 x159
  +1 x166 +1 x179 +1 x185 +1 x198 >= +1
 c72: +1 x6 +1 x15 +1 x16 +1 x22 +1 x30 +1 x37 +1 x41 +1 x46 +1 x48 +1 x52 +1 x56 +1 x81 +1 x107 +1 x108
  +1 x110 +1 x141 +1 x157 +1 x162 +1 x172 +1 x173 +1 x185 +1 x196 >= +1
 c73: +1 x7 +1 x10 +1 x22 +1 x34 +1 x41 +1 x43 +1 x49 +1 x51 +1 x52 +1 x56 +1 x60 +1 x73 +1 x76 +1 x91
  +1 x113 +1 x125 +1 x134 +1 x138 +1 x143 +1 x146 +1 x153 +1 x154 +1 x160 +1 x172 +1 x185 +1 x199 >= +1
 c74: +1 x7 +1 x12 +1 x38 +1 x53 +1 x66 +1 x69 +1 x73 +1 x100 +1 x125 +1 x132 +1 x137 +1 x169 +1 x182
  +1 x188 +1 x189 >= +1
 c75: +1 x2 +1 x11 +1 x24 +1 x26 +1 x32 +1 x38 +1 x42 +1 x95 +1 x105 +1 x106 +1 x118 +1 x123 +1 x138 +1 x148
  +1 x150 +1 x173 +1 x188 >= +1
 c76: +1 x1 +1 x10 +1 x20 +1 x29 +1 x36 +1 x58 +1 x80 +1 x81 +1 x92 +1 x96 +1 x102 +1 x136 +1 x145 +1 x151
  +1 x168 +1 x174 +1 x179 +1 x181 +1 x183 +1 x191 +1 x195 >= +1
 c77: +1 x7 +1 x9 +1 x14 +1 x31 +1 x56 +1 x65 +1 x68 +1 x75 +1 x80 +1 x112 +1 x117 +1 x130 +1 x132 +1 x140
  +1 x155 +1 x162 +1 x178 +1 x183 +1 x191 +1 x193 >= +1
 c78: +1 x2 +1 x27 +1 x38 +1 x43 +1 x67 +1 x81 +1 x82 +1 x89 +1 x92 +1 x103 +1 x104 +1 x119 +1 x123 +1 x132
  +1 x140 +1 x152 +1 x157 +1 x186 +1 x189 +1 x191 +1 x199 >= +1
 c79: +1 x0 +1 x12 +1 x111 +1 x130 +1 x131 +1 x135 +1 x156 +1 x160 +1 x166 +1 x184 +1 x191 +1 x192 >= +1
 c80: +1 x2 +1 x12 +1 x16 +1 x21 +1 x33 +1 x34 +1 x71 +1 x80 +1 x90 +1 x91 +1 x95 +1 x102 +1 x136 +1 x138
  +1 x139 +1 x142 +1 x144 +1 x151 +1 x157 +1 x158 +1 x163 +1 x172 +1 x196 +1 x197 >= +1
 c81: +1 x5 +1 x14 +1 x52 +1 x65 +1 x69 +1 x70 +1 x87 +1 x100 +1 x122 +1 x139 +1 x143 +1 x144 +1 x156
  +1 x158 +1 x160 +1 x165 +1 x173 +1 x176 +1 x194 >= +1
 c82: +1 x6 +1 x37 +1 x43 +1 x46 +1 x56 +1 x72 +1 x79 +1 x80 +1 x88 +1 x90 +1 x92 +1 x106 +1 x119 +1 x141
  +1 x165 +1 x166 +1 x178 +1 x190 +1 x199 >= +1
 c83: +1 x5 +1 x11 +1 x20 +1 x21 +1 x24 +1 x31 +1 x40 +1 x49 +1 x56 +1 x83 +1 x84 +1 x91 +1 x96 +1 x114
  +1 x138 +1 x144 +1 x162 +1 x173 >= +1
 c84: +1 x5 +1 x15 +1 x45 +1 x51 +1 x57 +1 x62 +1 x73 +1 x95 +1 x103 +1 x115 +1 x121 +1 x125 +1 x144 +1 x145
  +1 x160 +1 x171 +1 x192 +1 x199 >= +1
 c85: +1 x7 +1 x13 +1 x21 +1 x24 +1 x27 +1 x38 +1 x43 +1 x57 +1 x58 +1 x87 +1 x89 +1 x95 +1 x100 +1 x103
  +1 x114 +1 x115 +1 x121 +1 x122 +1 x127 +1 x128 +1 x133 +1 x135 +1 x137 +1 x187 +1 x189 +1 x191 >= +1
 c86: +1 x8 +1 x17 +1 x46 +1 x69 +1 x76 +1 x78 +1 x85 +1 x94 +1 x96 +1 x111 +1 x118 +1 x120 +1 x125 +1 x126
  +1 x129 +1 x137 +1 x138 +1 x156 +1 x162 +1 x165 +1 x176 >= +1
 c87: +1 x4 +1 x16 +1 x41 +1 x46 +1 x48 +1 x54 +1 x75 +1 x81 +1 x93 +1 x96 +1 x104 +1 x113 +1 x129 +1 x144
  +1 x149 +1 x185 +1 x192 >= +1
 c88: +1 x6 +1 x13 +1 x21 +1 x22 +1 x24 +1 x37 +1 x40 +1 x42 +1 x47 +1 x51 +1 x62 +1 x63 +1 x74 +1 x84
  +1 x89 +1 x105 +1 x114 +1 x135 +1 x139 +1 x140 +1 x149 +1 x175 +1 x188 +1 x189 +1 x191 +1 x194 >= +1
 c89: +1 x4 +1 x10 +1 x14 +1 x17 +1 x24 +1 x29 +1 x35 +1 x36 +1 x43 +1 x49 +1 x53 +1 x63 +1 x75 +1 x105
  +1 x117 +1 x121 +1 x125 +1 x126 +1 x138 +1 x145 +1 x150 +1 x153 +1 x159 +1 x161 +1 x169 +1 x185 +1 x186
  +1 x187 +1 x195 >= +1
 c90: +1 x0 +1 x10 +1 x19 +1 x21 +1 x27 +1 x48 +1 x57 +1 x67 +1 x92 +1 x97 +1 x98 +1 x116 +1 x130 +1 x131
  +1 x134 +1 x152 +1 x154 +1 x160 +1 x172 >= +1
 c91: +1 x2 +1 x27 +1 x29 +1 x40 +1 x43 +1 x45 +1 x55 +1 x63 +1 x77 +1 x80 +1 x84 +1 x87 +1 x98 +1 x123
  +1 x128 +1 x136 +1 x149 +1 x163 +1 x184 +1 x185 +1 x190 +1 x193 >= +1
 c92: +1 x2 +1 x18 +1 x24 +1 x31 +1 x36 +1 x78 +1 x79 +1 x90 +1 x93 +1 x108 +1 x134 +1 x137 +1 x141 +1 x171
  +1 x192 +1 x197 >= +1
 c93: +1 x7 +1 x16 +1 x22 +1 x29 +1 x31 +1 x63 +1 x67 +1 x94 +1 x96 +1 x116 +1 x134 +1 x146 +1 x149 +1 x152
  +1 x194 >= +1
 c94: +1 x1 +1 x36 +1 x38 +1 x40 +1 x49 +1 x66 +1 x77 +1 x113 +1 x119 +1 x133 +1 x142 +1 x144 +1 x146
  +1 x174 +1 x175 >= +1
 c95: +1 x6 +1 x19 +1 x25 +1 x53 +1 x70 +1 x73 +1 x86 +1 x98 +1 x112 +1 x116 +1 x118 +1 x123 +1 x126 +1 x130
  +1 x139 +1 x154 +1 x167 +1 x170 +1 x198 >= +1
 c96: +1 x0 +1 x15 +1 x28 +1 x30 +1 x40 +1 x51 +1 x54 +1 x55 +1 x61 +1 x85 +1 x93 +1 x108 +1 x132 +1 x133
  +1 x136 +1 x158 +1 x169 +1 x179 >= +1
 c97: +1 x0 +1 x28 +1 x34 +1 x56 +1 x60 +1 x62 +1 x78 +1 x81 +1 x97 +1 x100 +1 x121 +1 x133 +1 x144 +1 x145
  +1 x157 +1 x159 +1 x166 +1 x168 +1 x169 +1 x184 +1 x190 +1 x193 >= +1
 c98: +1 x3 +1 x27 +1 x28 +1 x31 +1 x41 +1 x46 +1 x55 +1 x68 +1 x80 +1 x110 +1 x111 +1 x130 +1 x140 +1 x156
  +1 x185 +1 x186 +1 x193 +1 x198 >= +1
 c99: +1 x4 +1 x21 +1 x40 +1 x57 +1 x59 +1 x60 +1 x65 +1 x71 +1 x72 +1 x80 +1 x85 +1 x114 +1 x163 +1 x171
  +1 x175 +1 x182 +1 x188 +1 x192 +1 x194 +1 x196 >= +1
 c100: +1 x6 +1 x12 +1 x14 +1 x23 +1 x27 +1 x54 +1 x57 +1 x68 +1 x77 +1 x95 +1 x97 +1 x109 +1 x121 +1 x137
  +1 x142 +1 x177 +1 x193 >= +1
 c101: +1 x1 +1 x31 +1 x32 +1 x43 +1 x83 +1 x100 +1 x102 +1 x115 +1 x134 +1 x145 +1 x149 +1 x153 +1 x158
  +1 x161 +1 x172 +1 x174 +1 x179 +1 x194 >= +1
 c102: +1 x7 +1 x12 +1 x27 +1 x43 +1 x57 +1 x68 +1 x82 +1 x100 +1 x107 +1 x111 +1 x116 +1 x133 +1 x154
  +1 x163 +1 x179 +1 x186 +1 x199 >= +1
 c103: +1 x7 +1 x25 +1 x31 +1 x58 +1 x71 +1 x78 +1 x89 +1 x104 +1 x115 +1 x132 +1 x133 +1 x136 +1 x149
  +1 x159 +1 x161 +1 x162 +1 x173 +1 x180 +1 x186 >= +1
 c104: +1 x1 +1 x12 +1 x34 +1 x39 +1 x78 +1 x101 +1 x110 +1 x116 +1 x120 +1 x121 +1 x129 +1 x139 +1 x150
  +1 x163 +1 x167 +1 x198 >= +1
 c105: +1 x7 +1 x12 +1 x20 +1 x22 +1 x41 +1 x43 +1 x51 +1 x57 +1 x66 +1 x77 +1 x83 +1 x92 +1 x99 +1 x108
  +1 x133 +1 x143 +1 x153 +1 x166 +1 x170 +1 x184 +1 x188 +1 x197 >= +1
 c106: +1 x3 +1 x9 +1 x16 +1 x17 +1 x19 +1 x22 +1 x39 +1 x58 +1 x86 +1 x87 +1 x89 +1 x91 +1 x93 +1 x122
  +1 x133 +1 x135 +1 x136 +1 x140 +1 x161 +1 x167 +1 x171 +1 x173 +1 x192 +1 x198 >= +1
 c107: +1 x1 +1 x57 +1 x67 +1 x76 +1 x82 +1 x85 +1 x88 +1 x112 +1 x113 +1 x124 +1 x127 +1 x132 +1 x140
  +1 x146 +1 x151 +1 x157 +1 x163 +1 x173 +1 x184 +1 x186 +1 x194 >= +1
 c108: +1 x3 +1 x25 +1 x26 +1 x35 +1 x44 +1 x49 +1 x127 +1 x128 +1 x183 +1 x184 +1 x196 >= +1
 c109: +1 x5 +1 x9 +1 x27 +1 x49 +1 x50 +1 x72 +1 x74 +1 x76 +1 x78 +1 x119 +1 x120 +1 x121 +1 x127 +1 x130
  +1 x150 +1 x167 +1 x195 +1 x199 >= +1
 c110: +1 x0 +1 x23 +1 x27 +1 x48 +1 x50 +1 x51 +1 x58 +1 x71 +1 x74 +1 x82 +1 x96 +1 x98 +1 x123 +1 x129
  +1 x143 +1 x153 +1 x186 +1 x190 +1 x192 >= +1
 c111: +1 x1 +1 x31 +1 x36 +1 x63 +1 x66 +1 x67 +1 x68 +1 x117 +1 x131 +1 x156 +1 x157 +1 x162 +1 x171
  +1 x178 +1 x183 +1 x189 >= +1
 c112: +1 x6 +1 x9 +1 x13 +1 x14 +1 x16 +1 x27 +1 x60 +1 x72 +1 x75 +1 x78 +1 x82 +1 x83 +1 x89 +1 x108
  +1 x113 +1 x119 +1 x127 +1 x173 +1 x191 +1 x194 +1 x199 >= +1
 c113: +1 x4 +1 x22 +1 x32 +1 x54 +1 x55 +1 x59 +1 x63 +1 x71 +1 x72 +1 x74 +1 x75 +1 x93 +1 x104 +1 x112
  +1 x118 +1 x127 +1 x140 +1 x144 +1 x146 +1 x169 +1 x173 +1 x176 +1 x185 +1 x186 +1 x197 +1 x198 +1 x199
  >= +1
 c114: +1 x3 +1 x17 +1 x18 +1 x28 +1 x33 +1 x44 +1 x59 +1 x64 +1 x66 +1 x75 +1 x82 +1 x91 +1 x96 +1 x107
  +1 x108 +1 x152 +1 x164 +1 x168 +1 x173 +1 x175 +1 x180 >= +1
 c115: +1 x8 +1 x12 +1 x20 +1 x47 +1 x48 +1 x54 +1 x57 +1 x84 +1 x101 +1 x114 +1 x143 +1 x165 +1 x194
  +1 x195 >= +1
 c116: +1 x2 +1 x14 +1 x44 +1 x45 +1 x55 +1 x99 +1 x121 +1 x132 +1 x144 +1 x149 +1 x152 +1 x159 +1 x170
  +1 x180 +1 x181 +1 x183 >= +1
 c117: +1 x3 +1 x9 +1 x19 +1 x39 +1 x65 +1 x71 +1 x72 +1 x74 +1 x75 +1 x89 +1 x98 +1 x102 +1 x105 +1 x115
  +1 x126 +1 x127 +1 x135 +1 x141 +1 x151 +1 x173 +1 x175 +1 x179 +1 x185 +1 x193 +1 x198 +1 x199 >= +1
 c118: +1 x1 +1 x25 +1 x33 +1 x37 +1 x49 +1 x68 +1 x70 +1 x74 +1 x85 +1 x87 +1 x100 +1 x108 +1 x134 +1 x143
  +1 x146 +1 x160 +1 x185 +1 x191 >= +1
 c119: +1 x6 +1 x16 +1 x18 +1 x21 +1 x34 +1 x40 +1 x43 +1 x44 +1 x45 +1 x54 +1 x62 +1 x69 +1 x71 +1 x77
  +1 x87 +1 x110 +1 x126 +1 x128 +1 x134 +1 x135 +1 x143 +1 x144 +1 x178 +1 x186 >= +1
 c120: +1 x7 +1 x10 +1 x11 +1 x15 +1 x21 +1 x45 +1 x49 +1 x106 +1 x108 +1 x122 +1 x127 +1 x179 +1 x193
  >= +1
 c121: +1 x0 +1 x18 +1 x22 +1 x23 +1 x38 +1 x47 +1 x55 +1 x64 +1 x72 +1 x84 +1 x103 +1 x105 +1 x123 +1 x125
  +1 x137 +1 x155 +1 x162 +1 x186 >= +1
 c122: +1 x6 +1 x10 +1 x18 +1 x27 +1 x33 +1 x63 +1 x70 +1 x90 +1 x102 +1 x109 +1 x110 +1 x112 +1 x114
  +1 x122 +1 x129 +1 x151 +1 x154 +1 x174 +1 x179 +1 x180 +1 x188 +1 x195 >= +1
 c123: +1 x6 +1 x9 +1 x13 +1 x25 +1 x39 +1 x52 +1 x57 +1 x62 +1 x70 +1 x101 +1 x117 +1 x124 +1 x128 +1 x143
  +1 x150 +1 x162 +1 x188 +1 x191 +1 x193 >= +1
 c124: +1 x8 +1 x39 +1 x43 +1 x50 +1 x57 +1 x74 +1 x80 +1 x83 +1 x89 +1 x101 +1 x108 +1 x111 +1 x128 +1 x136
  +1 x141 +1 x144 +1 x151 +1 x163 +1 x179 +1 x185 >= +1
 c125: +1 x6 +1 x19 +1 x20 +1 x29 +1 x31 +1 x39 +1 x47 +1 x52 +1 x55 +1 x79 +1 x84 +1 x86 +1 x89 +1 x91
  +1 x98 +1 x127 +1 x129 +1 x152 +1 x180 >= +1
 c126: +1 x5 +1 x16 +1 x21 +1 x26 +1 x29 +1 x33 +1 x34 +1 x39 +1 x40 +1 x59 +1 x74 +1 x86 +1 x107 +1 x116
  +1 x118 +1 x127 +1 x131 +1 x133 +1 x134 +1 x139 +1 x140 +1 x145 +1 x146 +1 x154 +1 x174 +1 x186 >= +1
 c127: +1 x1 +1 x11 +1 x53 +1 x63 +1 x72 +1 x92 +1 x94 +1 x97 +1 x114 +1 x115 +1 x119 +1 x125 +1 x139
  +1 x142 +1 x150 >= +1
 c128: +1 x5 +1 x18 +1 x40 +1 x43 +1 x57 +1 x84 +1 x87 +1 x92 +1 x95 +1 x124 +1 x145 +1 x151 +1 x168 +1 x174
  +1 x188 +1 x194 >= +1
 c129: +1 x6 +1 x18 +1 x45 +1 x52 +1 x60 +1 x75 +1 x91 +1 x95 +1 x97 +1 x106 +1 x120 +1 x156 +1 x168 +1 x170
  >= +1
 c130: +1 x1 +1 x21 +1 x36 +1 x39 +1 x41 +1 x67 +1 x79 +1 x80 +1 x89 +1 x105 +1 x107 +1 x124 +1 x136 +1 x137
  +1 x146 +1 x150 +1 x151 +1 x161 +1 x181 +1 x182 +1 x188 >= +1
 c131: +1 x8 +1 x13 +1 x15 +1 x17 +1 x26 +1 x33 +1 x38 +1 x45 +1 x46 +1 x55 +1 x68 +1 x72 +1 x86 +1 x87
  +1 x91 +1 x106 +1 x117 +1 x120 +1 x128 +1 x165 +1 x170 +1 x180 +1 x191 +1 x192 >= +1
 c132: +1 x0 +1 x20 +1 x21 +1 x40 +1 x62 +1 x71 +1 x117 +1 x123 +1 x147 +1 x154 +1 x159 +1 x160 +1 x161
  +1 x177 +1 x179 +1 x190 +1 x193 >= +1
 c133: +1 x1 +1 x15 +1 x19 +1 x29 +1 x32 +1 x38 +1 x45 +1 x46 +1 x69 +1 x117 +1 x127 +1 x167 +1 x168 +1 x169
  +1 x171 +1 x177 +1 x194 +1 x196 +1 x198 >= +1
 c134: +1 x4 +1 x12 +1 x29 +1 x36 +1 x37 +1 x45 +1 x63 +1 x84 +1 x94 +1 x105 +1 x109 +1 x114 +1 x128 +1 x145
  +1 x174 +1 x185 +1 x197 >= +1
 c135: +1 x4 +1 x12 +1 x18 +1 x33 +1 x37 +1 x44 +1 x48 +1 x53 +1 x61 +1 x62 +1 x64 +1 x68 +1 x69 +1 x75
  +1 x101 +1 x104 +1 x126 +1 x158 +1 x175 +1 x179 +1 x184 +1 x185 +1 x189 +1 x198 >= +1
 c136: +1 x3 +1 x10 +1 x13 +1 x14 +1 x16 +1 x17 +1 x28 +1 x55 +1 x78 +1 x93 +1 x111 +1 x118 +1 x123 +1 x134
  +1 x142 +1 x144 +1 x148 +1 x156 +1 x160 +1 x162 +1 x185 +1 x188 +1 x196 >= +1
 c137: +1 x3 +1 x11 +1 x25 +1 x46 +1 x68 +1 x73 +1 x90 +1 x98 +1 x99 +1 x106 +1 x136 +1 x144 +1 x145 +1 x150
  +1 x154 +1 x164 +1 x174 +1 x183 +1 x187 +1 x194 >= +1
 c138: +1 x6 +1 x19 +1 x54 +1 x68 +1 x72 +1 x89 +1 x93 +1 x99 +1 x125 +1 x126 +1 x137 +1 x158 +1 x165
  +1 x185 +1 x187 +1 x196 >= +1
 c139: +1 x2 +1 x11 +1 x34 +1 x43 +1 x46 +1 x61 +1 x63 +1 x75 +1 x87 +1 x93 +1 x94 +1 x104 +1 x106 +1 x115
  +1 x125 +1 x132 +1 x136 +1 x161 +1 x162 +1 x172 +1 x183 +1 x185 >= +1
 c140: +1 x2 +1 x18 +1 x21 +1 x34 +1 x36 +1 x43 +1 x54 +1 x55 +1 x59 +1 x106 +1 x108 +1 x109 +1 x110 +1 x130
  +1 x153 +1 x166 +1 x183 +1 x192 +1 x195 >= +1
 c141: +1 x6 +1 x19 +1 x23 +1 x25 +1 x35 +1 x36 +1 x41 +1 x42 +1 x62 +1 x70 +1 x79 +1 x81 +1 x91 +1 x92
  +1 x109 +1 x124 +1 x127 +1 x131 +1 x134 +1 x135 +1 x141 +1 x147 +1 x154 +1 x158 +1 x163 +1 x166 +1 x183
  +1 x191 >= +1
 c142: +1 x2 +1 x14 +1 x37 +1 x57 +1 x62 +1 x71 +1 x73 +1 x78 +1 x81 +1 x100 +1 x117 +1 x130 +1 x134 +1 x137
  +1 x158 +1 x159 +1 x160 +1 x168 +1 x174 +1 x176 +1 x177 +1 x178 >= +1
 c143: +1 x3 +1 x13 +1 x18 +1 x19 +1 x26 +1 x46 +1 x52 +1 x57 +1 x122 +1 x133 +1 x134 +1 x143 +1 x161
  +1 x163 +1 x192 >= +1
 c144: +1 x5 +1 x9 +1 x18 +1 x19 +1 x27 +1 x29 +1 x43 +1 x61 +1 x74 +1 x88 +1 x93 +1 x101 +1 x103 +1 x110
  +1 x117 +1 x127 +1 x131 +1 x138 +1 x142 +1 x151 +1 x164 +1 x193 +1 x197 >= +1
 c145: +1 x0 +1 x27 +1 x29 +1 x47 +1 x57 +1 x103 +1 x108 +1 x109 +1 x126 +1 x145 +1 x162 +1 x167 +1 x170
  >= +1
 c146: +1 x4 +1 x20 +1 x28 +1 x29 +1 x47 +1 x50 +1 x52 +1 x64 +1 x74 +1 x77 +1 x87 +1 x94 +1 x95 +1 x96
  +1 x115 +1 x117 +1 x118 +1 x126 +1 x139 +1 x148 +1 x154 +1 x160 +1 x164 +1 x165 +1 x169 +1 x186 +1 x199
  >= +1
 c147: +1 x1 +1 x13 +1 x26 +1 x30 +1 x46 +1 x51 +1 x57 +1 x64 +1 x72 +1 x78 +1 x112 +1 x117 +1 x127 +1 x128
  +1 x130 +1 x132 +1 x136 +1 x137 +1 x175 +1 x179 +1 x184 +1 x190 +1 x191 +1 x193 +1 x195 >= +1
 c148: +1 x0 +1 x14 +1 x45 +1 x47 +1 x53 +1 x54 +1 x57 +1 x68 +1 x70 +1 x73 +1 x79 +1 x112 +1 x147 +1 x162
  +1 x169 +1 x171 +1 x183 +1 x184 +1 x186 +1 x188 +1 x194 +1 x198 >= +1
 c149: +1 x5 +1 x21 +1 x27 +1 x45 +1 x55 +1 x57 +1 x65 +1 x67 +1 x75 +1 x97 +1 x120 +1 x139 +1 x144 +1 x145
  +1 x166 +1 x181 +1 x183 +1 x186 +1 x190 +1 x197 >= +1
 c150: +1 x1 +1 x38 +1 x56 +1 x59 +1 x64 +1 x82 +1 x86 +1 x93 +1 x106 +1 x107 +1 x128 +1 x149 +1 x155
  +1 x184 +1 x187 >= +1
 c151: +1 x6 +1 x13 +1 x16 +1 x31 +1 x38 +1 x46 +1 x52 +1 x62 +1 x71 +1 x72 +1 x74 +1 x78 +1 x87 +1 x89
  +1 x95 +1 x106 +1 x111 +1 x134 +1 x145 +1 x156 +1 x162 +1 x168 +1 x177 +1 x193 +1 x199 >= +1
 c152: +1 x7 +1 x12 +1 x33 +1 x35 +1 x39 +1 x48 +1 x51 +1 x56 +1 x61 +1 x67 +1 x72 +1 x88 +1 x91 +1 x100
  +1 x111 +1 x112 +1 x120 +1 x127 +1 x137 +1 x149 +1 x150 +1 x158 +1 x168 +1 x173 +1 x177 +1 x188 +1 x199
  >= +1
 c153: +1 x0 +1 x16 +1 x21 +1 x22 +1 x33 +1 x46 +1 x49 +1 x66 +1 x75 +1 x120 +1 x134 +1 x144 +1 x147 +1 x178
  +1 x195 >= +1
 c154: +1 x8 +1 x13 +1 x36 +1 x39 +1 x49 +1 x62 +1 x70 +1 x71 +1 x81 +1 x85 +1 x92 +1 x98 +1 x108 +1 x113
  +1 x115 +1 x123 +1 x138 +1 x176 +1 x186 >= +1
 c155: +1 x1 +1 x34 +1 x43 +1 x45 +1 x51 +1 x56 +1 x67 +1 x71 +1 x80 +1 x90 +1 x92 +1 x111 +1 x117 +1 x119
  +1 x139 +1 x142 +1 x149 +1 x151 +1 x154 +1 x163 +1 x165 +1 x175 +1 x179 >= +1
 c156: +1 x8 +1 x17 +1 x27 +1 x35 +1 x56 +1 x76 +1 x77 +1 x81 +1 x83 +1 x111 +1 x131 +1 x145 +1 x179 >= +1
 c157: +1 x3 +1 x33 +1 x39 +1 x41 +1 x52 +1 x73 +1 x75 +1 x77 +1 x87 +1 x109 +1 x123 +1 x127 +1 x145 +1 x151
  +1 x155 +1 x167 +1 x172 +1 x176 +1 x183 +1 x193 +1 x194 >= +1
 c158: +1 x3 +1 x11 +1 x15 +1 x32 +1 x41 +1 x43 +1 x52 +1 x58 +1 x71 +1 x105 +1 x109 +1 x121 +1 x137 +1 x152
  +1 x162 +1 x164 +1 x189 +1 x195 >= +1
 c159: +1 x6 +1 x12 +1 x36 +1 x49 +1 x66 +1 x74 +1 x76 +1 x91 +1 x95 +1 x103 +1 x106 +1 x110 +1 x112 +1 x113
  +1 x130 +1 x132 +1 x135 +1 x152 +1 x157 +1 x158 +1 x189 +1 x190 >= +1
 c160: +1 x5 +1 x32 +1 x33 +1 x35 +1 x37 +1 x39 +1 x47 +1 x50 +1 x55 +1 x58 +1 x68 +1 x70 +1 x71 +1 x80
  +1 x87 +1 x90 +1 x94 +1 x101 +1 x111 +1 x143 +1 x160 +1 x180 +1 x185 >= +1
 c161: +1 x7 +1 x10 +1 x26 +1 x39 +1 x54 +1 x58 +1 x60 +1 x76 +1 x82 +1 x111 +1 x130 +1 x133 +1 x136 +1 x141
  +1 x151 +1 x168 +1 x169 +1 x175 +1 x180 +1 x193 +1 x199 >= +1
 c162: +1 x2 +1 x31 +1 x33 +1 x36 +1 x40 +1 x57 +1 x59 +1 x85 +1 x94 +1 x132 +1 x137 +1 x143 +1 x172 +1 x178
  +1 x186 +1 x198 >= +1
 c163: +1 x7 +1 x9 +1 x32 +1 x41 +1 x60 +1 x63 +1 x87 +1 x88 +1 x96 +1 x143 +1 x156 +1 x158 +1 x163 +1 x177
  +1 x178 +1 x180 +1 x188 +1 x196 >= +1
 c164: +1 x8 +1 x14 +1 x22 +1 x63 +1 x66 +1 x67 +1 x70 +1 x76 +1 x95 +1 x107 +1 x111 +1 x112 +1 x124 +1 x129
  +1 x130 +1 x133 +1 x137 +1 x163 +1 x183 >= +1
 c165: +1 x8 +1 x19 +1 x21 +1 x26 +1 x38 +1 x43 +1 x44 +1 x49 +1 x55 +1 x62 +1 x65 +1 x79 +1 x96 +1 x99
  +1 x117 +1 x128 +1 x149 +1 x161 +1 x163 +1 x172 +1 x180 +1 x181 +1 x190 >= +1
 c166: +1 x3 +1 x25 +1 x27 +1 x49 +1 x81 +1 x87 +1 x89 +1 x101 +1 x112 +1 x132 +1 x145 +1 x153 +1 x156
  +1 x159 +1 x160 +1 x163 +1 x166 +1 x171 +1 x176 +1 x186 >= +1
 c167: +1 x3 +1 x21 +1 x22 +1 x32 +1 x39 +1 x45 +1 x53 +1 x64 +1 x76 +1 x82 +1 x95 +1 x109 +1 x121 +1 x123
  +1 x137 +1 x138 +1 x142 +1 x175 +1 x177 +1 x185 +1 x198 +1 x199 >= +1
 c168: +1 x4 +1 x23 +1 x29 +1 x44 +1 x51 +1 x52 +1 x63 +1 x86 +1 x92 +1 x94 +1 x97 +1 x103 +1 x107 +1 x109
  +1 x115 +1 x119 +1 x120 +1 x124 +1 x133 +1 x137 +1 x156 +1 x165 +1 x167 +1 x168 +1 x169 +1 x196 >= +1
 c169: +1 x0 +1 x21 +1 x25 +1 x31 +1 x44 +1 x98 +1 x132 +1 x150 +1 x155 +1 x157 +1 x174 +1 x179 +1 x185
  +1 x194 >= +1
 c170: +1 x7 +1 x18 +1 x30 +1 x41 +1 x45 +1 x50 +1 x63 +1 x69 +1 x86 +1 x94 +1 x96 +1 x103 +1 x105 +1 x110
  +1 x115 +1 x138 +1 x140 +1 x141 +1 x151 +1 x175 +1 x181 +1 x183 +1 x191 +1 x196 +1 x199 >= +1
 c171: +1 x9 +1 x13 +1 x42 +1 x43 +1 x79 +1 x90 +1 x93 +1 x98 +1 x104 +1 x108 +1 x110 +1 x116 +1 x123
  +1 x146 +1 x167 +1 x180 +1 x187 +1 x191 >= +1
 c172: +1 x1 +1 x17 +1 x21 +1 x24 +1 x30 +1 x37 +1 x42 +1 x46 +1 x80 +1 x88 +1 x100 +1 x105 +1 x107 +1 x108
  +1 x144 +1 x147 +1 x153 +1 x156 +1 x181 >= +1
 c173: +1 x8 +1 x23 +1 x30 +1 x34 +1 x55 +1 x57 +1 x68 +1 x89 +1 x94 +1 x102 +1 x107 +1 x117 +1 x123 +1 x125
  +1 x128 +1 x131 +1 x140 +1 x145 +1 x146 +1 x161 +1 x172 +1 x173 +1 x174 +1 x177 +1 x180 +1 x182 +1 x199
  >= +1
 c174: +1 x8 +1 x16 +1 x19 +1 x30 +1 x38 +1 x50 +1 x75 +1 x77 +1 x83 +1 x113 +1 x133 +1 x135 +1 x136 +1 x139
  +1 x156 +1 x161 +1 x162 +1 x195 +1 x196 >= +1
 c175: +1 x1 +1 x14 +1 x22 +1 x25 +1 x49 +1 x64 +1 x65 +1 x80 +1 x87 +1 x96 +1 x98 +1 x104 +1 x106 +1 x166
  +1 x171 +1 x180 +1 x184 >= +1
 c176: +1 x6 +1 x21 +1 x45 +1 x48 +1 x53 +1 x58 +1 x69 +1 x74 +1 x80 +1 x97 +1 x119 +1 x123 +1 x125 +1 x130
  +1 x132 +1 x148 +1 x164 +1 x166 +1 x167 +1 x180 >= +1
 c177: +1 x4 +1 x15 +1 x16 +1 x18 +1 x28 +1 x39 +1 x42 +1 x68 +1 x74 +1 x77 +1 x85 +1 x101 +1 x111 +1 x128
  +1 x134 +1 x135 +1 x146 +1 x150 +1 x151 +1 x152 +1 x153 +1 x155 +1 x161 +1 x165 +1 x167 +1 x174 +1 x175
  >= +1
 c178: +1 x8 +1 x28 +1 x54 +1 x55 +1 x78 +1 x79 +1 x81 +1 x99 +1 x116 +1 x125 +1 x134 +1 x136 +1 x160
  +1 x161 +1 x169 +1 x178 +1 x198 >= +1
 c179: +1 x2 +1 x17 +1 x20 +1 x39 +1 x67 +1 x68 +1 x86 +1 x88 +1 x90 +1 x99 +1 x104 +1 x121 +1 x130 +1 x137
  +1 x149 +1 x151 +1 x155 +1 x161 +1 x162 +1 x167 +1 x183 +1 x188 +1 x195 >= +1
 c180: +1 x6 +1 x38 +1 x58 +1 x61 +1 x87 +1 x90 +1 x98 +1 x106 +1 x113 +1 x146 +1 x159 +1 x172 +1 x179
  +1 x183 +1 x189 +1 x190 +1 x199 >= +1
 c181: +1 x0 +1 x24 +1 x44 +1 x85 +1 x92 +1 x94 +1 x112 +1 x113 +1 x120 +1 x124 +1 x130 +1 x150 +1 x151
  +1 x164 +1 x177 +1 x182 +1 x183 +1 x186 +1 x198 >= +1
 c182: +1 x0 +1 x12 +1 x18 +1 x40 +1 x52 +1 x71 +1 x75 +1 x77 +1 x84 +1 x100 +1 x115 +1 x134 +1 x147 +1 x156
  +1 x173 +1 x179 +1 x186 +1 x194 >= +1
 c183: +1 x6 +1 x16 +1 x21 +1 x22 +1 x24 +1 x34 +1 x45 +1 x55 +1 x60 +1 x79 +1 x82 +1 x84 +1 x89 +1 x96
  +1 x99 +1 x104 +1 x110 +1 x117 +1 x122 +1 x127 +1 x144 +1 x176 +1 x179 +1 x180 +1 x186 +1 x190 +1 x191
  >= +1
 c184: +1 x2 +1 x12 +1 x20 +1 x27 +1 x31 +1 x39 +1 x63 +1 x73 +1 x75 +1 x76 +1 x80 +1 x86 +1 x94 +1 x98
  +1 x102 +1 x112 +1 x115 +1 x128 +1 x129 +1 x134 +1 x158 +1 x167 +1 x172 +1 x174 +1 x192 >= +1
 c185: +1 x3 +1 x9 +1 x20 +1 x37 +1 x50 +1 x55 +1 x61 +1 x76 +1 x84 +1 x97 +1 x118 +1 x121 +1 x123 +1 x124
  +1 x149 +1 x153 +1 x182 +1 x196 >= +1
 c186: +1 x2 +1 x31 +1 x45 +1 x49 +1 x51 +1 x62 +1 x64 +1 x69 +1 x79 +1 x95 +1 x97 +1 x107 +1 x111 +1 x116
  +1 x117 +1 x119 +1 x122 +1 x128 +1 x132 +1 x137 +1 x146 +1 x147 +1 x163 +1 x165 +1 x192 >= +1
 c187: +1 x5 +1 x10 +1 x14 +1 x20 +1 x22 +1 x25 +1 x29 +1 x46 +1 x49 +1 x50 +1 x61 +1 x63 +1 x65 +1 x66
  +1 x71 +1 x73 +1 x80 +1 x95 +1 x108 +1 x118 +1 x130 +1 x141 +1 x149 +1 x159 +1 x162 +1 x163 +1 x164
  +1 x176 +1 x191 +1 x195 >= +1
 c188: +1 x5 +1 x13 +1 x17 +1 x18 +1 x24 +1 x31 +1 x34 +1 x53 +1 x63 +1 x80 +1 x84 +1 x99 +1 x106 +1 x123
  +1 x143 +1 x156 +1 x170 +1 x197 >= +1
 c189: +1 x8 +1 x18 +1 x30 +1 x33 +1 x46 +1 x73 +1 x85 +1 x97 +1 x107 +1 x111 +1 x113 +1 x126 +1 x131
  +1 x141 +1 x149 +1 x155 +1 x173 +1 x179 +1 x181 >= +1
 c190: +1 x8 +1 x9 +1 x18 +1 x22 +1 x40 +1 x42 +1 x52 +1 x69 +1 x101 +1 x103 +1 x122 +1 x126 +1 x129 +1 x131
  +1 x132 +1 x138 +1 x150 +1 x155 +1 x168 +1 x175 +1 x192 >= +1
 c191: +1 x3 +1 x10 +1 x25 +1 x34 +1 x36 +1 x43 +1 x47 +1 x55 +1 x59 +1 x64 +1 x70 +1 x72 +1 x83 +1 x87
  +1 x88 +1 x90 +1 x96 +1 x134 +1 x137 +1 x141 +1 x142 +1 x150 +1 x152 +1 x153 +1 x155 +1 x162 +1 x163
  +1 x173 +1 x178 +1 x193 +1 x195 >= +1
 c192: +1 x6 +1 x16 +1 x25 +1 x37 +1 x48 +1 x50 +1 x51 +1 x61 +1 x72 +1 x77 +1 x78 +1 x80 +1 x82 +1 x91
  +1 x98 +1 x111 +1 x124 +1 x138 +1 x149 +1 x162 +1 x180 +1 x187 +1 x198 >= +1
 c193: +1 x2 +1 x15 +1 x38 +1 x70 +1 x81 +1 x92 +1 x95 +1 x105 +1 x131 +1 x138 +1 x161 +1 x187 +1 x190
  +1 x194 >= +1
 c194: +1 x5 +1 x11 +1 x16 +1 x19 +1 x20 +1 x33 +1 x34 +1 x41 +1 x46 +1 x51 +1 x57 +1 x61 +1 x67 +1 x72
  +1 x88 +1 x102 +1 x120 +1 x130 +1 x136 +1 x142 +1 x146 +1 x159 +1 x161 +1 x168 +1 x189 +1 x197 >= +1
 c195: +1 x0 +1 x32 +1 x53 +1 x59 +1 x69 +1 x83 +1 x85 +1 x99 +1 x122 +1 x123 +1 x141 +1 x143 +1 x146
  +1 x147 +1 x157 +1 x166 +1 x189 +1 x199 >= +1
 c196: +1 x1 +1 x17 +1 x29 +1 x38 +1 x43 +1 x45 +1 x47 +1 x49 +1 x52 +1 x54 +1 x64 +1 x73 +1 x87 +1 x98
  +1 x105 +1 x114 +1 x115 +1 x116 +1 x124 +1 x128 +1 x155 +1 x159 +1 x164 +1 x199 >= +1
 c197: +1 x6 +1 x17 +1 x24 +1 x42 +1 x43 +1 x50 +1 x66 +1 x78 +1 x106 +1 x112 +1 x128 +1 x176 +1 x178
  +1 x186 >= +1
 c198: +1 x7 +1 x10 +1 x23 +1 x41 +1 x46 +1 x58 +1 x72 +1 x80 +1 x84 +1 x89 +1 x90 +1 x99 +1 x105 +1 x109
  +1 x140 +1 x147 +1 x174 +1 x190 +1 x193 >= +1
 c199: +1 x5 +1 x72 +1 x73 +1 x93 +1 x95 +1 x99 +1 x119 +1 x136 +1 x178 +1 x189 >= +1
Bounds
 0 <= x0 <= 1
 0 <= x1 <= 1
 0 <= x2 <= 1
 0 <= x3 <= 1
 0 <= x4 <= 1
 0 <= x5 <= 1
 0 <= x6 <= 1
 0 <= x7 <= 1
 0 <= x8 <= 1
 0 <= x9 <= 1
 0 <= x10 <= 1
 0 <= x11 <= 1
 0 <= x12 <= 1
 0 <= x13 <= 1
 0 <= x14 <= 1
 0 <= x15 <= 1
 0 <= x16 <= 1
 0 <= x17 <= 1
 0 <= x18 <= 1
 0 <= x19 <= 1
 0 <= x20 <= 1
 0 <= x21 <= 1
 0 <= x22 <= 1
 0 <= x23 <= 1
 0 <= x24 <= 1
 0 <= x25 <= 1
 0 <= x26 <= 1
 0 <= x27 <= 1
 0 <= x28 <= 1
 0 <= x29 <= 1
 0 <= x30 <= 1
 0 <= x31 <= 1
 0 <= x32 <= 1
 0 <= x33 <= 1
 0 <= x34 <= 1
 0 <= x35 <= 1
 0 <= x36 <= 1
 0 <= x37 <= 1
 0 <= x38 <= 1
 0 <= x39 <= 1
 0 <= x40 <= 1
 0 <= x41 <= 1
 0 <= x42 <= 1
 0 <= x43 <= 1
 0 <= x44 <= 1
 0 <= x45 <= 1
 0 <= x46 <= 1
 0 <= x47 <= 1
 0 <= x48 <= 1
 0 <= x49 <= 1
 0 <= x50 <= 1
 0 <= x51 <= 1
 0 <= x52 <= 1
 0 <= x53 <= 1
 0 <= x54 <= 1
 0 <= x55 <= 1
 0 <= x56 <= 1
 0 <= x57 <= 1
 0 <= x58 <= 1
 0 <= x59 <= 1
 0 <= x60 <= 1
 0 <= x61 <= 1
 0 <= x62 <= 1
 0 <= x63 <= 1
 0 <= x64 <= 1
 0 <= x65 <= 1
 0 <= x66 <= 1
 0 <= x67 <= 1
 0 <= x68 <= 1
 0 <= x69 <= 1
 0 <= x70 <= 1
 0 <= x71 <= 1
 0 <= x72 <= 1
 0 <= x73 <= 1
 0 <= x74 <= 1
 0 <= x75 <= 1
 0 <= x76 <= 1
 0 <= x77 <= 1
 0 <= x78 <= 1
 0 <= x79 <= 1
 0 <= x80 <= 1
 0 <= x81 <= 1
 0 <= x82 <= 1
 0 <= x83 <= 1
 0 <= x84 <= 1
 0 <= x85 <= 1
 0 <= x86 <= 1
 0 <= x87 <= 1
 0 <= x88 <= 1
 0 <= x89 <= 1
 0 <= x90 <= 1
 0 <= x91 <= 1
 0 <= x92 <= 1
 0 <= x93 <= 1
 0 <= x94 <= 1
 0 <= x95 <= 1
 0 <= x96 <= 1
 0 <= x97 <= 1
 0 <= x98 <= 1
 0 <= x99 <= 1
 0 <= x100 <= 1
 0 <= x101 <= 1
 0 <= x102 <= 1
 0 <= x103 <= 1
 0 <= x104 <= 1
 0 <= x105 <= 1
 0 <= x106 <= 1
 0 <= x107 <= 1
 0 <= x108 <= 1
 0 <= x109 <= 1
 0 <= x110 <= 1
 0 <= x111 <= 1
 0 <= x112 <= 1
 0 <= x113 <= 1
 0 <= x114 <= 1
 0 <= x115 <= 1
 0 <= x116 <= 1
 0 <= x117 <= 1
 0 <= x118 <= 1
 0 <= x119 <= 1
 0 <= x120 <= 1
 0 <= x121 <= 1
 0 <= x122 <= 1
 0 <= x123 <= 1
 0 <= x124 <= 1
 0 <= x125 <= 1
 0 <= x126 <= 1
 0 <= x127 <= 1
 0 <= x128 <= 1
 0 <= x129 <= 1
 0 <= x130 <= 1
 0 <= x131 <= 1
 0 <= x132 <= 1
 0 <= x133 <= 1
 0 <= x134 <= 1
 0 <= x135 <= 1
 0 <= x136 <= 1
 0 <= x137 <= 1
 0 <= x138 <= 1
 0 <= x139 <= 1
 0 <= x140 <= 1
 0 <= x141 <= 1
 0 <= x142 <= 1
 0 <= x143 <= 1
 0 <= x144 <= 1
 0 <= x145 <= 1
 0 <= x146 <= 1
 0 <= x147 <= 1
 0 <= x148 <= 1
 0 <= x149 <= 1
 0 <= x150 <= 1
 0 <= x151 <= 1
 0 <= x152 <= 1
 0 <= x153 <= 1
 0 <= x154 <= 1
 0 <= x155 <= 1
 0 <= x156 <= 1
 0 <= x157 <= 1
 0 <= x158 <= 1
 0 <= x159 <= 1
 0 <= x160 <= 1
 0 <= x161 <= 1
 0 <= x162 <= 1
 0 <= x163 <= 1
 0 <= x164 <= 1
 0 <= x165 <= 1
 0 <= x166 <= 1
 0 <= x167 <= 1
 0 <= x168 <= 1
 0 <= x169 <= 1
 0 <= x170 <= 1
 0 <= x171 <= 1
 0 <= x172 <= 1
 0 <= x173 <= 1
 0 <= x174 <= 1
 0 <= x175 <= 1
 0 <= x176 <= 1
 0 <= x177 <= 1
 0 <= x178 <= 1
 0 <= x179 <= 1
 0 <= x180 <= 1
 0 <= x181 <= 1
 0 <= x182 <= 1
 0 <= x183 <= 1
 0 <= x184 <= 1
 0 <= x185 <= 1
 0 <= x186 <= 1
 0 <= x187 <= 1
 0 <= x188 <= 1
 0 <= x189 <= 1
 0 <= x190 <= 1
 0 <= x191 <= 1
 0 <= x192 <= 1
 0 <= x193 <= 1
 0 <= x194 <= 1
 0 <= x195 <= 1
 0 <= x196 <= 1
 0 <= x197 <= 1
 0 <= x198 <= 1
 0 <= x199 <= 1
Binaries
 x0 x1 x2 x3 x4 x5 x6 x7 x8 x9 x10 x11 x12 x13 x14 x15 x16 x17 x18 x19 x20 x21 x22 x23 x24 x25 x26 x27
 x28 x29 x30 x31 x32 x33 x34 x35 x36 x37 x38 x39 x40 x41 x42 x43 x44 x45 x46 x47 x48 x49 x50 x51 x52 x53
 x54 x55 x56 x57 x58 x59 x60 x61 x62 x63 x64 x65 x66 x67 x68 x69 x70 x71 x72 x73 x74 x75 x76 x77 x78 x79
 x80 x81 x82 x83 x84 x85 x86 x87 x88 x89 x90 x91 x92 x93 x94 x95 x96 x97 x98 x99 x100 x101 x102 x103 x104
 x105 x106 x107 x108 x109 x110 x111 x112 x113 x114 x115 x116 x117 x118 x119 x120 x121 x122 x123 x124 x125
 x126 x127 x128 x129 x130 x131 x132 x133 x134 x135 x136 x137 x138 x139 x140 x141 x142 x143 x144 x145 x146
 x147 x148 x149 x150 x151 x152 x153 x154 x155 x156 x157 x158 x159 x160 x161 x162 x163 x164 x165 x166 x167
 x168 x169 x170 x171 x172 x173 x174 x175 x176 x177 x178 x179 x180 x181 x182 x183 x184 x185 x186 x187 x188
 x189 x190 x191 x192 x193 x194 x195 x196 x197 x198 x199
End
